c Generated map
c Size: 9 * 9, weights in range: 1 to 10, walls: True, with ratio 0.1
c dim 1 of 7
c
p sp 81 114
c graph contains 81 nodes and 114 arcs
c
a 1 10 7
a 10 1 7
a 1 2 4
a 2 1 4
a 2 11 5
a 11 2 5
a 2 3 10
a 3 2 10
a 3 4 3
a 4 3 3
a 4 13 2
a 13 4 2
a 4 5 5
a 5 4 5
a 5 14 10
a 14 5 10
a 5 6 2
a 6 5 2
a 6 15 8
a 15 6 8
a 6 7 1
a 7 6 1
a 7 16 2
a 16 7 2
a 7 8 6
a 8 7 6
a 8 17 4
a 17 8 4
a 8 9 10
a 9 8 10
a 9 18 2
a 18 9 2
a 10 11 2
a 11 10 2
a 11 20 1
a 20 11 1
a 13 22 1
a 22 13 1
a 13 14 4
a 14 13 4
a 14 23 10
a 23 14 10
a 14 15 3
a 15 14 3
a 15 24 7
a 24 15 7
a 15 16 4
a 16 15 4
a 16 25 9
a 25 16 9
a 16 17 5
a 17 16 5
a 17 26 10
a 26 17 10
a 17 18 7
a 18 17 7
a 18 27 3
a 27 18 3
a 20 29 6
a 29 20 6
a 20 21 2
a 21 20 2
a 21 22 4
a 22 21 4
a 22 31 4
a 31 22 4
a 22 23 4
a 23 22 4
a 23 32 7
a 32 23 7
a 23 24 5
a 24 23 5
a 24 33 10
a 33 24 10
a 24 25 6
a 25 24 6
a 25 34 6
a 34 25 6
a 25 26 7
a 26 25 7
a 26 35 1
a 35 26 1
a 26 27 7
a 27 26 7
a 27 36 10
a 36 27 10
a 28 29 6
a 29 28 6
a 29 38 8
a 38 29 8
a 31 40 6
a 40 31 6
a 31 32 2
a 32 31 2
a 32 41 10
a 41 32 10
a 32 33 4
a 33 32 4
a 33 42 2
a 42 33 2
a 33 34 3
a 34 33 3
a 34 35 1
a 35 34 1
a 35 44 6
a 44 35 6
a 35 36 8
a 36 35 8
a 36 45 6
a 45 36 6
a 38 47 5
a 47 38 5
a 38 39 9
a 39 38 9
a 39 40 2
a 40 39 2
a 40 49 3
a 49 40 3
a 40 41 8
a 41 40 8
a 41 50 4
a 50 41 4
a 41 42 5
a 42 41 5
a 42 51 5
a 51 42 5
a 44 53 8
a 53 44 8
a 44 45 10
a 45 44 10
a 45 54 1
a 54 45 1
a 46 55 10
a 55 46 10
a 46 47 3
a 47 46 3
a 49 58 10
a 58 49 10
a 49 50 10
a 50 49 10
a 50 59 5
a 59 50 5
a 50 51 6
a 51 50 6
a 51 60 3
a 60 51 3
a 51 52 7
a 52 51 7
a 52 61 4
a 61 52 4
a 52 53 8
a 53 52 8
a 53 62 5
a 62 53 5
a 53 54 2
a 54 53 2
a 54 63 6
a 63 54 6
a 55 64 9
a 64 55 9
a 57 66 6
a 66 57 6
a 57 58 7
a 58 57 7
a 58 67 3
a 67 58 3
a 58 59 10
a 59 58 10
a 59 68 10
a 68 59 10
a 59 60 4
a 60 59 4
a 60 69 6
a 69 60 6
a 60 61 4
a 61 60 4
a 61 62 4
a 62 61 4
a 62 71 7
a 71 62 7
a 62 63 2
a 63 62 2
a 63 72 10
a 72 63 10
a 64 73 9
a 73 64 9
a 64 65 8
a 65 64 8
a 65 74 1
a 74 65 1
a 65 66 6
a 66 65 6
a 66 75 8
a 75 66 8
a 66 67 6
a 67 66 6
a 67 76 10
a 76 67 10
a 67 68 7
a 68 67 7
a 68 77 5
a 77 68 5
a 68 69 2
a 69 68 2
a 69 78 1
a 78 69 1
a 71 80 5
a 80 71 5
a 71 72 2
a 72 71 2
a 72 81 3
a 81 72 3
a 73 74 10
a 74 73 10
a 74 75 9
a 75 74 9
a 75 76 8
a 76 75 8
a 76 77 9
a 77 76 9
a 77 78 8
a 78 77 8
a 78 79 9
a 79 78 9
a 79 80 3
a 80 79 3
a 80 81 7
a 81 80 7
